20J6M/DAT/20J6MNLL-8.dat
20 6
15.9017 15.9017
33.2269 33.2269
16.4313 16.4313
23.0766 23.0766
27.3837 27.3837
23.3928 23.3928
27.5309 27.5309
23.913 23.913
27.1275 27.1275
26.9338 26.9338
23.6629 23.6629
31.268 31.268
21.9237 21.9237
24.3483 24.3483
20.8543 20.8543
26.4814 26.4814
25.1728 25.1728
19.8123 19.8123
25.4384 25.4384
26.3525 26.3525
81.7055