20J6M/SOL/20J6MNLL-8.sol
solution status: optimal solution found
objective value:                     81.7054666666667
x#1#5                                               1 	(obj:0)
x#2#2                                               1 	(obj:0)
x#3#3                                               1 	(obj:0)
x#4#3                                               1 	(obj:0)
x#5#2                                               1 	(obj:0)
x#6#1                               0.133328773525757 	(obj:0)
x#6#3                               0.866671226474243 	(obj:0)
x#7#1                                0.32082012090657 	(obj:0)
x#7#6                                0.67917987909343 	(obj:0)
x#8#5                                               1 	(obj:0)
x#9#1                                               1 	(obj:0)
x#10#1                                              1 	(obj:0)
x#11#4                                              1 	(obj:0)
x#12#2                              0.674647136582662 	(obj:0)
x#12#6                              0.325352863417338 	(obj:0)
x#13#3                                              1 	(obj:0)
x#14#4                                              1 	(obj:0)
x#15#5                                              1 	(obj:0)
x#16#6                                              1 	(obj:0)
x#17#4                              0.551466927265408 	(obj:0)
x#17#5                              0.448533072734592 	(obj:0)
x#18#4                                              1 	(obj:0)
x#19#1                              0.616892833930855 	(obj:0)
x#19#5                              0.383107166069145 	(obj:0)
x#20#6                                              1 	(obj:0)
z                                    81.7054666666667 	(obj:1)
